NAME: random-30-10890
TYPE: TSP
COMMENT: size=30 seed=10890
DIMENSION: 62
EDGE_WEIGHT_TYPE: EUC_2D
NODE_COORD_SECTION
+0 230 106
-0 230 106
+1 453 632
-1 896 796
+2 611 844
-2 728 418
+3 177 108
-3 876 774
+4 754 109
-4 375 311
+5 408 144
-5 799 326
+6 942 884
-6 463 133
+7 330 305
-7 619 40
+8 554 778
-8 195 992
+9 127 271
-9 886 924
+10 200 827
-10 527 52
+11 185 273
-11 854 792
+12 717 186
-12 381 476
+13 37 689
-13 456 89
+14 554 15
-14 753 297
+15 983 122
-15 176 682
+16 522 957
-16 524 884
+17 233 829
-17 776 689
+18 151 273
-18 954 581
+19 261 425
-19 326 21
+20 292 505
-20 526 331
+21 745 365
-21 451 907
+22 442 848
-22 587 725
+23 616 897
-23 541 576
+24 151 822
-24 816 779
+25 293 865
-25 21 93
+26 852 45
-26 44 57
+27 120 644
-27 269 834
+28 817 850
-28 962 877
+29 247 658
-29 919 940
+30 870 200
-30 956 503
PRECEDENCE_SECTION
+0 -0
+1 -1
+2 -2
+3 -3
+4 -4
+5 -5
+6 -6
+7 -7
+8 -8
+9 -9
+10 -10
+11 -11
+12 -12
+13 -13
+14 -14
+15 -15
+16 -16
+17 -17
+18 -18
+19 -19
+20 -20
+21 -21
+22 -22
+23 -23
+24 -24
+25 -25
+26 -26
+27 -27
+28 -28
+29 -29
+30 -30
EOF
